% Data file generated from RandomInstances/18_0.95_3.col DIMACS file
size = 18;

chi = 14;

adjacency = [|0,1,1,1,1,1,1,1,1,1,1,1,1,1,1,1,1,1,
|1,0,1,1,1,1,1,1,1,1,1,1,1,1,1,1,1,1,
|1,1,0,1,1,1,1,1,1,0,1,1,1,1,1,1,1,1,
|1,1,1,0,1,1,1,1,1,1,1,1,1,1,1,1,1,1,
|1,1,1,1,0,1,1,1,1,1,1,1,1,1,1,1,1,1,
|1,1,1,1,1,0,1,1,1,1,1,1,1,1,1,1,1,1,
|1,1,1,1,1,1,0,0,1,1,1,1,1,1,1,1,1,1,
|1,1,1,1,1,1,0,0,1,1,0,1,1,1,1,1,1,1,
|1,1,1,1,1,1,1,1,0,1,1,1,1,1,1,1,1,1,
|1,1,0,1,1,1,1,1,1,0,1,1,1,1,1,1,1,1,
|1,1,1,1,1,1,1,0,1,1,0,1,1,1,1,1,1,1,
|1,1,1,1,1,1,1,1,1,1,1,0,1,1,1,1,1,1,
|1,1,1,1,1,1,1,1,1,1,1,1,0,1,1,1,1,1,
|1,1,1,1,1,1,1,1,1,1,1,1,1,0,1,1,1,1,
|1,1,1,1,1,1,1,1,1,1,1,1,1,1,0,1,0,0,
|1,1,1,1,1,1,1,1,1,1,1,1,1,1,1,0,1,1,
|1,1,1,1,1,1,1,1,1,1,1,1,1,1,0,1,0,0,
|1,1,1,1,1,1,1,1,1,1,1,1,1,1,0,1,0,0,
|];